/*********************************************
 * OPL 12.6.0.0 Data
 * Author: Adrian Rodriguez Bazaga, Pau Rodriguez Esmerats
 * Creation Date: 06/12/2017 at 23:04:58
 *********************************************/

nNurses=238;
maxConsec=2;
maxPresence=7;
maxHours=5;
minHours=1;
hours=24;
demand= [33 41 62 57 41 62 57 42 50 26 6 3 9 6 10 5 7 4 4 3 33 59 27 47  ];
